\ This file has been generated by DOcplex
\ ENCODING=ISO-8859-1
\Problem name: random_problem.lp

Minimize
 obj: 7 x0 + 9 x1 + 3 x2 - 3 x3 + 5 x4 - 6 x5 + 5 x6 + 3 x7 - 5 x8 - 10 x9
      + 7 x10 - 4 x11 + x12 - 9 x13 + 9 x14 + x15 - 10 x16 - 3 x17 + 4 x18
      + 8 x19 - 3 x20 + [ 2 x0*x3 + 4 x0*x5 - 10 x0*x11 - 10 x0*x15 + 8 x0*x16
      + 14 x1*x2 - 20 x1*x5 - 16 x1*x9 + 20 x1*x17 - 8 x1*x19 - 16 x2*x4
      - 14 x2*x11 + 12 x2*x15 + 20 x2*x20 - 16 x3*x5 - 16 x3*x8 + 12 x3*x10
      - 14 x3*x20 - 4 x4*x5 - 2 x4*x10 - 10 x4*x15 - 16 x4*x20 - 20 x5*x11
      + 14 x6*x9 + 10 x6*x10 + 6 x6*x13 + 12 x6*x15 + 2 x6*x16 + 16 x7*x8
      + 12 x7*x12 + 12 x7*x14 - 8 x7*x18 + 14 x7*x19 + 8 x8*x12 + 2 x8*x16
      - 16 x8*x17 - 8 x9*x10 + 18 x9*x18 - 8 x9*x20 - 6 x10*x19 - 2 x11*x13
      - 6 x11*x17 - 8 x12*x16 - 6 x12*x17 + 10 x12*x18 + 14 x13*x14 - 18 x13*x17
      + 10 x13*x20 + 18 x14*x15 - 14 x14*x18 + 8 x14*x19 + 10 x16*x18 ]/2
Subject To
 c0: 2 x2 - 2 x12 - x13 + 2 x14 + x16 = -2
 c1: 2 x0 + 2 x1 + x10 - x17 - 2 x20 = -1
 c2: x2 + x5 + 2 x10 + 2 x15 + 2 x18 = 1
 c3: - 2 x11 + x14 - x15 + 2 x18 + x20 = 1

Bounds
 0 <= x0 <= 1
 0 <= x1 <= 1
 0 <= x2 <= 1
 0 <= x3 <= 1
 0 <= x4 <= 1
 0 <= x5 <= 1
 0 <= x6 <= 1
 0 <= x7 <= 1
 0 <= x8 <= 1
 0 <= x9 <= 1
 0 <= x10 <= 1
 0 <= x11 <= 1
 0 <= x12 <= 1
 0 <= x13 <= 1
 0 <= x14 <= 1
 0 <= x15 <= 1
 0 <= x16 <= 1
 0 <= x17 <= 1
 0 <= x18 <= 1
 0 <= x19 <= 1
 0 <= x20 <= 1

Binaries
 x0 x1 x2 x3 x4 x5 x6 x7 x8 x9 x10 x11 x12 x13 x14 x15 x16 x17 x18 x19 x20
End
